
Gurobi 9.1.2 (win64, Java) logging started Sat Nov  6 21:16:49 2021

Academic license - for non-commercial use only - expires 2022-10-30
Gurobi Optimizer version 9.1.2 build v9.1.2rc0 (win64)
Thread count: 6 physical cores, 12 logical processors, using up to 12 threads
Optimize a model with 40 rows, 400 columns and 800 nonzeros
Model fingerprint: 0x6b8f9fa0
Variable types: 0 continuous, 400 integer (400 binary)
Coefficient statistics:
  Matrix range     [1e+00, 9e+02]
  Objective range  [5e+02, 1e+03]
  Bounds range     [1e+00, 1e+00]
  RHS range        [1e+00, 5e+02]
Found heuristic solution: objective 4828.0000000
Presolve removed 32 rows and 385 columns
Presolve time: 0.01s
Presolved: 8 rows, 15 columns, 30 nonzeros
Found heuristic solution: objective 7403.0000000
Variable types: 0 continuous, 15 integer (15 binary)
Presolved: 8 rows, 15 columns, 30 nonzeros


Root relaxation: cutoff, 7 iterations, 0.00 seconds

    Nodes    |    Current Node    |     Objective Bounds      |     Work
 Expl Unexpl |  Obj  Depth IntInf | Incumbent    BestBd   Gap | It/Node Time

     0     0     cutoff    0      7403.00000 7403.00000  0.00%     -    0s

Explored 0 nodes (7 simplex iterations) in 0.02 seconds
Thread count was 12 (of 12 available processors)

Solution count 2: 7403 4828 

Optimal solution found (tolerance 1.00e-04)
Best objective 7.403000000000e+03, best bound 7.403000000000e+03, gap 0.0000%
